Version identifier: 22.1.1.0 | 2022-11-27 | 9160aff4d
Legacy callback                                  pi
Tried aggregator 2 times.
MIQCP Presolve eliminated 8566 rows and 1367 columns.
MIQCP Presolve modified 25 coefficients.
Aggregator did 1 substitutions.
Reduced MIQCP has 20674 rows, 20526 columns, and 68365 nonzeros.
Reduced MIQCP has 298 binaries, 47 generals, 0 SOSs, and 0 indicators.
Reduced MIQCP has 3941 quadratic constraints.
Presolve time = 0.70 sec. (80.14 ticks)
Probing fixed 0 vars, tightened 12651 bounds.
Probing changed sense of 6 constraints.
Probing time = 0.27 sec. (105.64 ticks)
Cover probing fixed 0 vars, tightened 1386 bounds.
Clique table members: 2598.
MIP emphasis: balance optimality and feasibility.
MIP search method: dynamic search.
Parallel mode: deterministic, using up to 12 threads.
Root relaxation solution time = 4.08 sec. (4932.20 ticks)

        Nodes                                         Cuts/
   Node  Left     Objective  IInf  Best Integer    Best Bound    ItCnt     Gap

      0     0        4.7100     0                      0.0000    17931         
      0     0        4.7100   156                      4.7100    17931         
      0     2        4.7100    32                      4.7100    17931         
Elapsed time = 12.48 sec. (8739.67 ticks, tree = 0.02 MB, solutions = 0)
      2     4       14.6000    23                      4.7100    17940         
      4     4       14.6000   130                      4.7100    19214         
      6     8       14.6000   107                      4.7100    19832         
      9    10       34.5200    65                      4.7100    20027         
     15    13       34.5200    93                      4.7100    20393         
     18     9       14.6000   154                      4.7100    20564         
     21    16       14.6000    62                      4.7100    21896         
     27    23    infeasible                            4.7100    27937         
     30    22       67.1300    75                      4.7100    26926         
     87    25       33.2700   103                      4.7100    31738         
Elapsed time = 33.30 sec. (13203.66 ticks, tree = 0.06 MB, solutions = 0)
    170    35    infeasible                            4.7100    51244         
    226    23    infeasible                            4.7100    59224         
    250    28      163.9600     5                      4.7100    61517         
    291    47      139.9600    43                      4.7100    67721         
    366    68        4.7100    95                      4.7100    72921         
    439    92    infeasible                            4.7100    76773         
    457   108    infeasible                            4.7100    81600         
*   469    36      integral     0      946.6600        4.7100    45636   99.50%
    477    93    infeasible            946.6600        4.7100    84018   99.50%
    524    75    infeasible            946.6600        4.7100    89108   99.50%
*   535    81      integral     0      931.9700        4.7100    88532   99.49%
Elapsed time = 76.95 sec. (22219.28 ticks, tree = 3.03 MB, solutions = 3)
*   555+   63                          931.1700        4.7100            99.49%
    580    47    infeasible            931.1700        4.7100    94720   99.49%
    608    37        4.7100    42      931.1700        4.7100    96947   99.49%
    630    90  -1.00000e+75     0      931.1700        4.7100    84272   99.49%
    630    90        cutoff            931.1700        4.7100    84272   99.49%
    635    44   5.17611e+08     0      931.1700        4.7100    47431   99.49%
    661    23      280.8100    14      931.1700        4.7100   101317   99.49%
    671    21    infeasible            931.1700        4.7100    56155   99.49%
    681    55    infeasible            931.1700        4.7100    72500   99.49%
    701    15    infeasible            931.1700        4.7100   107082   99.49%
    708    93    infeasible            931.1700        4.7100    78873   99.49%
    716     7    infeasible            931.1700       18.2900   110783   98.04%
Elapsed time = 666.45 sec. (160860.25 ticks, tree = 0.53 MB, solutions = 6)
    729     4       18.2900   133      931.1700       18.2900   113323   98.04%

Clique cuts applied:  1
Cover cuts applied:  1
Implied bound cuts applied:  66
Gomory fractional cuts applied:  1
Cone linearizations applied:  146

Root node processing (before b&c):
  Real time             =   11.47 sec. (8570.23 ticks)
Parallel b&c, 12 threads:
  Real time             =  656.89 sec. (153808.12 ticks)
  Sync time (average)   =  311.63 sec.
  Wait time (average)   =    0.00 sec.
                          ------------
Total (root+branch&cut) =  668.36 sec. (162378.35 ticks)
